TCS_Benchmarks/redos_fix/regexlib1_output_distinct_1285_1284_8_0.txt
([^t&g;]*)([\/s]*)
([^t&g;]*)(value[\/s]*=)([\/s]*)